results/poly_5.pk_20_20_20.smt2
(declare-fun p1x () Real)
(declare-fun p1y () Real)
(declare-fun p1z () Real)
(declare-fun dummy () Real)
(define-fun h () Real 20.0)
(assert (>= p1x 2))
(assert (>= p1y 4))
(assert (>= p1z 4))
(assert (<= p1x 18))
(assert (<= p1y 16))
(assert (<= p1z (- h 6)))
(check-sat)
(get-model)
