results/poly_5.pk_20_20_20.model
sat
(model 
  (define-fun p1y () Real
    4.0)
  (define-fun p1z () Real
    4.0)
  (define-fun p1x () Real
    2.0)
)
